NAME: n30q10D.tsp, 30 nodes, semilla 333
COMMENT: Problema aleatorio de norma euclidea
DIMENSION: 30
CAPACITY: 10
EDGE_WEIGHT_TYPE: EUC_2D
NODE_COORD_SECTION
1   0.0000   0.0000
2 -273.0000 -373.0000
3 -371.0000 -268.0000
4 179.0000 469.0000
5 276.0000 -496.0000
6 422.0000 287.0000
7 -499.0000 -363.0000
8 -316.0000  89.0000
9 -162.0000 460.0000
10   1.0000 -59.0000
11 344.0000 303.0000
12 200.0000 -248.0000
13 -28.0000 -410.0000
14 382.0000  85.0000
15 -112.0000 472.0000
16 262.0000 315.0000
17 274.0000 221.0000
18 101.0000  87.0000
19 -307.0000 284.0000
20 209.0000 -451.0000
21 482.0000 441.0000
22 -130.0000  11.0000
23 -336.0000 386.0000
24  97.0000 -186.0000
25 415.0000 209.0000
26 -479.0000 370.0000
27 -95.0000 132.0000
28 242.0000 444.0000
29 -126.0000 -196.0000
30  75.0000 -326.0000
DISPLAY_DATA_SECTION:
 1  250  250
 2  113   63
 3   64  116
 4  339  484
 5  388    2
 6  461  393
 7    0   68
 8   92  294
 9  169  480
10  250  220
11  422  401
12  350  126
13  236   45
14  441  292
15  194  486
16  381  407
17  387  360
18  300  293
19   96  392
20  354   24
21  491  470
22  185  255
23   82  443
24  298  157
25  457  354
26   10  435
27  202  316
28  371  472
29  187  152
30  287   87
DEMAND_SECTION
1 -9
2 -5
3 6
4 7
5 1
6 10
7 0
8 8
9 -10
10 -2
11 -9
12 -10
13 6
14 -2
15 1
16 -10
17 -5
18 1
19 7
20 -2
21 -3
22 4
23 4
24 -1
25 2
26 4
27 -5
28 6
29 0
30 6
EOF